Cars = 1..200;
Options = 1..5;
Classes = 1..24;
sequenceMinCapacity = [0, 0, 0, 0, 0];
sequenceMaxCapacity = [1, 2, 1, 2, 1];
sequenceSize = [2, 3, 3, 5, 5];
numOrdered = [40, 3, 11, 2, 7, 4, 2, 7, 19, 2, 2, 7, 14, 4, 11, 21, 9, 6, 5, 3, 3, 1, 14, 3];
classHasOption = [|false,  true, false, false, false
                  |false, false, false,  true,  true
                  |false, false, false, false,  true
                  | true,  true,  true,  true, false
                  |false,  true, false, false,  true
                  |false,  true,  true,  true, false
                  | true, false,  true, false,  true
                  | true,  true, false,  true, false
                  |false, false, false,  true, false
                  | true,  true, false,  true,  true
                  |false, false,  true,  true,  true
                  | true, false,  true, false, false
                  |false, false,  true, false, false
                  | true,  true, false, false,  true
                  | true,  true, false, false, false
                  | true, false, false, false, false
                  |false,  true,  true, false, false
                  | true,  true,  true, false, false
                  | true, false, false,  true, false
                  |false, false,  true,  true, false
                  | true, false,  true,  true, false
                  |false,  true, false,  true,  true
                  |false,  true, false, false, false
                  | true, false, false, false,  true|];
optionOrdering = [5, 3, 1, 2, 4];
